* ENCODING=ISO-8859-1
NAME          CPLEX
ROWS
 N  obj1    
 G  c1      
 G  c2      
 G  c3      
 G  c4      
 G  c5      
 G  c6      
 G  c7      
 G  c8      
 G  c9      
 G  c10     
 G  c11     
 G  c12     
 G  c13     
 G  c14     
 G  c15     
 G  c16     
 G  c17     
 G  c18     
 G  c19     
 G  c20     
 G  c21     
 G  c22     
 G  c23     
 G  c24     
 G  c25     
 G  c26     
 G  c27     
 G  c28     
 G  c29     
 G  c30     
 G  c31     
 G  c32     
 G  c33     
 G  c34     
 G  c35     
 G  c36     
 G  c37     
 G  c38     
 G  c39     
 G  c40     
 G  c41     
 G  c42     
 G  c43     
 G  c44     
 G  c45     
 G  c46     
 G  c47     
 G  c48     
 G  c49     
 G  c50     
COLUMNS
    MARK0000  'MARKER'                 'INTORG'
    x1        obj1                            1
    x1        c8                            557
    x1        c13                           597
    x1        c19                           820
    x1        c20                           280
    x1        c28                           624
    x1        c32                           137
    x1        c35                           438
    x1        c46                           159
    x1        c47                           767
    x2        obj1                            1
    x2        c1                            786
    x2        c10                           292
    x2        c15                           763
    x2        c16                           715
    x2        c34                           816
    x2        c43                           279
    x2        c50                           291
    x3        obj1                            1
    x3        c36                           461
    x3        c41                           393
    x4        obj1                            1
    x4        c2                            955
    x4        c10                           114
    x4        c12                           849
    x4        c19                           132
    x4        c30                           643
    x4        c36                           240
    x4        c39                           862
    x5        obj1                            1
    x5        c1                            450
    x5        c9                            276
    x5        c26                           432
    x5        c35                           521
    x6        obj1                            1
    x6        c4                            680
    x6        c12                           643
    x6        c23                           991
    x6        c25                           595
    x6        c33                           943
    x6        c39                           843
    x6        c44                           965
    x7        obj1                            1
    x7        c5                            414
    x7        c7                            484
    x7        c22                           696
    x7        c23                           399
    x7        c43                           648
    x8        obj1                            1
    x8        c2                            579
    x8        c3                            705
    x8        c20                           667
    x8        c31                           582
    x8        c44                           747
    x8        c46                           663
    x9        obj1                            1
    x9        c16                           605
    x9        c32                           754
    x9        c40                           692
    x10       obj1                            1
    x10       c2                            416
    x10       c4                            605
    x10       c5                            206
    x10       c35                           441
    x11       obj1                            1
    x11       c8                            173
    x12       obj1                            1
    x12       c17                           968
    x12       c50                           242
    x13       obj1                            1
    x13       c24                           741
    x13       c29                           994
    x13       c30                           875
    x13       c32                           406
    x13       c48                           730
    x14       obj1                            1
    x14       c18                           354
    x14       c22                           815
    x14       c25                           147
    x15       obj1                            1
    x15       c5                            526
    x15       c7                            870
    x15       c23                           813
    x15       c30                           636
    x15       c39                           205
    x16       obj1                            1
    x16       c11                           391
    x16       c23                           424
    x17       obj1                            1
    x17       c29                           925
    x17       c35                           565
    x17       c45                           679
    x17       c47                           861
    x18       obj1                            1
    x18       c12                           215
    x18       c38                           572
    x18       c42                           394
    x18       c47                           612
    x19       obj1                            1
    x19       c1                            773
    x19       c5                            918
    x19       c13                           509
    x19       c41                           999
    x19       c43                           137
    x20       obj1                            1
    x20       c11                           195
    x20       c29                           468
    x20       c30                           506
    x20       c31                           550
    x20       c32                           890
    x21       obj1                            1
    x21       c12                           626
    x21       c21                           541
    x21       c22                           140
    x21       c35                           143
    x21       c36                           360
    x21       c38                           714
    x21       c47                           358
    x22       obj1                            1
    x22       c2                            743
    x22       c5                            768
    x22       c10                           926
    x22       c14                           233
    x22       c18                           694
    x22       c23                           796
    x22       c27                           397
    x22       c28                           788
    x22       c29                           183
    x22       c45                           752
    x23       obj1                            1
    x23       c1                            647
    x23       c15                           310
    x23       c16                           718
    x23       c17                           556
    x23       c34                           325
    x23       c45                           565
    x24       obj1                            1
    x24       c20                           280
    x24       c22                           847
    x24       c42                           738
    x24       c48                           149
    x24       c49                           440
    x25       obj1                            1
    x25       c3                            459
    x25       c5                            197
    x25       c12                           875
    x25       c34                           557
    x25       c38                           374
    x25       c40                           331
    x25       c45                           148
    x26       obj1                            1
    x26       c3                            995
    x26       c8                            918
    x26       c20                           100
    x26       c22                           504
    x26       c24                           888
    x26       c26                           479
    x26       c31                           418
    x26       c37                           773
    x27       obj1                            1
    x27       c10                           351
    x27       c19                           735
    x28       obj1                            1
    x28       c19                           302
    x28       c22                           991
    x28       c26                           709
    x28       c49                           322
    x29       obj1                            1
    x29       c1                            785
    x29       c13                           655
    x29       c19                           569
    x29       c37                           259
    x29       c45                           911
    x30       obj1                            1
    x30       c21                           669
    x30       c42                           178
    x30       c43                           553
    x31       obj1                            1
    x31       c29                           235
    x31       c42                           929
    x32       obj1                            1
    x32       c14                           342
    x32       c18                           945
    x32       c26                           510
    x32       c32                           856
    x33       obj1                            1
    x33       c2                            750
    x33       c3                            747
    x33       c4                            400
    x33       c11                           978
    x33       c27                           369
    x33       c29                           714
    x33       c38                           975
    x33       c41                           627
    x33       c50                           772
    x34       obj1                            1
    x34       c1                            400
    x34       c18                           536
    x34       c20                           420
    x34       c33                           468
    x34       c41                           749
    x34       c47                           621
    x35       obj1                            1
    x35       c10                           249
    x35       c15                           496
    x35       c17                           172
    x35       c34                           546
    x35       c43                           247
    x35       c46                           900
    x35       c47                           184
    x36       obj1                            1
    x36       c14                           231
    x36       c15                           159
    x36       c16                           738
    x36       c24                           777
    x36       c28                           930
    x36       c38                           604
    x36       c44                           885
    x37       obj1                            1
    x37       c2                            614
    x37       c6                            350
    x37       c14                           329
    x37       c16                           568
    x37       c49                           105
    x38       obj1                            1
    x38       c7                            460
    x38       c9                            860
    x38       c16                           271
    x38       c17                           590
    x38       c21                           515
    x38       c23                           474
    x38       c28                           362
    x38       c50                           712
    x39       obj1                            1
    x39       c15                           821
    x39       c27                           513
    x39       c35                           373
    x39       c40                           802
    x39       c41                           110
    x40       obj1                            1
    x40       c6                            196
    x40       c35                           700
    x41       obj1                            1
    x41       c3                            294
    x41       c17                           102
    x41       c25                           176
    x41       c29                           938
    x41       c30                           980
    x41       c32                           624
    x41       c39                           194
    x42       obj1                            1
    x42       c1                            510
    x42       c11                           239
    x43       obj1                            1
    x43       c5                            477
    x43       c26                           148
    x43       c27                           339
    x43       c39                           223
    x43       c40                           397
    x43       c50                           229
    x44       obj1                            1
    x44       c6                            676
    x44       c11                           810
    x44       c12                           371
    x44       c20                           679
    x44       c36                           513
    x44       c48                           891
    x45       obj1                            1
    x45       c22                           417
    x45       c25                           362
    x45       c34                           535
    x45       c38                           498
    x46       obj1                            1
    x46       c11                           519
    x46       c20                           635
    x46       c21                           256
    x46       c30                           511
    x46       c31                           288
    x46       c32                           382
    x46       c39                           686
    x46       c50                           324
    x47       obj1                            1
    x47       c9                            589
    x47       c11                           628
    x47       c12                           785
    x47       c18                           899
    x47       c34                           759
    x47       c38                           588
    x47       c46                           143
    x48       obj1                            1
    x48       c9                            123
    x48       c15                           982
    x48       c23                           475
    x48       c41                           109
    x48       c47                           313
    x49       obj1                            1
    x49       c15                           795
    x49       c33                           225
    x49       c37                           687
    x50       obj1                            1
    x50       c9                            613
    x50       c24                           271
    x50       c39                           595
    x50       c45                           305
    MARK0001  'MARKER'                 'INTEND'
RHS
    rhs       c1                           2176
    rhs       c2                           2029
    rhs       c3                           1600
    rhs       c4                            843
    rhs       c5                           1753
    rhs       c6                            611
    rhs       c7                            907
    rhs       c8                            824
    rhs       c9                           1231
    rhs       c10                           966
    rhs       c11                          1880
    rhs       c12                          2182
    rhs       c13                           881
    rhs       c14                           568
    rhs       c15                          2163
    rhs       c16                          1808
    rhs       c17                          1194
    rhs       c18                          1714
    rhs       c19                          1279
    rhs       c20                          1531
    rhs       c21                           991
    rhs       c22                          2205
    rhs       c23                          2186
    rhs       c24                          1339
    rhs       c25                           640
    rhs       c26                          1139
    rhs       c27                           809
    rhs       c28                          1352
    rhs       c29                          2229
    rhs       c30                          2076
    rhs       c31                           919
    rhs       c32                          2025
    rhs       c33                           818
    rhs       c34                          1769
    rhs       c35                          1591
    rhs       c36                           787
    rhs       c37                           860
    rhs       c38                          2163
    rhs       c39                          1804
    rhs       c40                          1111
    rhs       c41                          1494
    rhs       c42                          1120
    rhs       c43                           932
    rhs       c44                          1299
    rhs       c45                          1680
    rhs       c46                           933
    rhs       c47                          1858
    rhs       c48                           885
    rhs       c49                           434
    rhs       c50                          1285
BOUNDS
 LI bnd       x1        0
 LI bnd       x2        0
 LI bnd       x3        0
 LI bnd       x4        0
 LI bnd       x5        0
 LI bnd       x6        0
 LI bnd       x7        0
 LI bnd       x8        0
 LI bnd       x9        0
 LI bnd       x10       0
 LI bnd       x11       0
 LI bnd       x12       0
 LI bnd       x13       0
 LI bnd       x14       0
 LI bnd       x15       0
 LI bnd       x16       0
 LI bnd       x17       0
 LI bnd       x18       0
 LI bnd       x19       0
 LI bnd       x20       0
 LI bnd       x21       0
 LI bnd       x22       0
 LI bnd       x23       0
 LI bnd       x24       0
 LI bnd       x25       0
 LI bnd       x26       0
 LI bnd       x27       0
 LI bnd       x28       0
 LI bnd       x29       0
 LI bnd       x30       0
 LI bnd       x31       0
 LI bnd       x32       0
 LI bnd       x33       0
 LI bnd       x34       0
 LI bnd       x35       0
 LI bnd       x36       0
 LI bnd       x37       0
 LI bnd       x38       0
 LI bnd       x39       0
 LI bnd       x40       0
 LI bnd       x41       0
 LI bnd       x42       0
 LI bnd       x43       0
 LI bnd       x44       0
 LI bnd       x45       0
 LI bnd       x46       0
 LI bnd       x47       0
 LI bnd       x48       0
 LI bnd       x49       0
 LI bnd       x50       0
ENDATA
